NAME : instances/clustered-mixed-tsp/instance-1.tsp
COMMENT : No Comment
TYPE : TSP
DIMENSION: 40
EDGE_WEIGHT_TYPE : EUC_2D
NODE_COORD_SECTION
1 426 901 
2 1927 634 
3 597 1211 
4 1177 466 
5 1455 163 
6 274 787 
7 945 1393 
8 1704 1222 
9 1403 233 
10 1646 1718 
11 1478 1636 
12 1252 1607 
13 1805 449 
14 1509 1681 
15 114 68 
16 90 1636 
17 1730 44 
18 175 1043 
19 1889 0 
20 428 1545 
21 31 1319 
22 416 1710 
23 1416 1984 
24 1000 1440 
25 660 1643 
26 340 303 
27 1353 665 
28 197 323 
29 1458 311 
30 1675 1927 
31 1861 1226 
32 1471 808 
33 612 1129 
34 1938 687 
35 1506 1928 
36 1237 1800 
37 1998 385 
38 603 866 
39 1292 1206 
40 1220 555 
EOF
